p cnf 251 1917
cr 32 31 30 29 28 27 26 25 24 23 22 21 20 19 18 17 16 15 14 13 12 11 10 9 8 7 6 5 4 3 2 1
-46 -48 0
-17 -49 0
-18 -49 0
-19 -49 0
-20 -49 0
-21 -49 0
-22 -49 0
-23 -49 0
-24 -49 0
-25 -49 0
-26 -49 0
-27 -49 0
-28 -49 0
-29 -49 0
-30 -49 0
-31 -49 0
-32 -49 0
-33 -49 0
-34 -49 0
-35 -49 0
-36 -49 0
-37 -49 0
-38 -49 0
-39 -49 0
-40 -49 0
-41 -49 0
-42 -49 0
-43 -49 0
-44 -49 0
-45 -49 0
-46 -49 0
2 -49 0
-45 -50 0
-17 -52 0
-18 -52 0
-19 -52 0
-20 -52 0
-21 -52 0
-22 -52 0
-23 -52 0
-24 -52 0
-25 -52 0
-26 -52 0
-27 -52 0
-28 -52 0
-29 -52 0
-30 -52 0
-31 -52 0
-32 -52 0
-33 -52 0
-34 -52 0
-35 -52 0
-36 -52 0
-37 -52 0
-38 -52 0
-39 -52 0
-40 -52 0
-41 -52 0
-42 -52 0
-43 -52 0
-44 -52 0
-45 -52 0
46 -52 0
3 -52 0
45 53 0
-3 -55 -46 0
-55 46 3 0
46 55 -3 0
55 -46 3 0
-17 -56 0
-18 -56 0
-19 -56 0
-20 -56 0
-21 -56 0
-22 -56 0
-23 -56 0
-24 -56 0
-25 -56 0
-26 -56 0
-27 -56 0
-28 -56 0
-29 -56 0
-30 -56 0
-31 -56 0
-32 -56 0
-33 -56 0
-34 -56 0
-35 -56 0
-36 -56 0
-37 -56 0
-38 -56 0
-39 -56 0
-40 -56 0
-41 -56 0
-42 -56 0
-43 -56 0
-44 -56 0
45 -56 0
-55 -56 0
4 -56 0
44 57 0
-60 -3 -46 0
-60 46 3 0
60 46 -3 0
60 -46 3 0
-61 -2 0
-61 47 0
61 2 -47 0
-17 -62 0
-18 -62 0
-19 -62 0
-20 -62 0
-21 -62 0
-22 -62 0
-23 -62 0
-24 -62 0
-25 -62 0
-26 -62 0
-27 -62 0
-28 -62 0
-29 -62 0
-30 -62 0
-31 -62 0
-32 -62 0
-33 -62 0
-34 -62 0
-35 -62 0
-36 -62 0
-37 -62 0
-38 -62 0
-39 -62 0
-40 -62 0
-41 -62 0
-42 -62 0
-43 -62 0
44 -62 0
-60 -62 0
-61 -62 0
5 -62 0
43 63 0
-67 -4 -45 0
-67 4 45 0
67 -4 45 0
4 67 -45 0
-68 -3 -46 0
46 -68 3 0
68 46 -3 0
68 -46 3 0
-2 -69 0
47 -69 0
69 2 -47 0
-17 -70 0
-18 -70 0
-19 -70 0
-20 -70 0
-21 -70 0
-22 -70 0
-23 -70 0
-24 -70 0
-25 -70 0
-26 -70 0
-27 -70 0
-28 -70 0
-29 -70 0
-30 -70 0
-31 -70 0
-32 -70 0
-33 -70 0
-34 -70 0
-35 -70 0
-36 -70 0
-37 -70 0
-38 -70 0
-39 -70 0
-40 -70 0
-41 -70 0
-42 -70 0
43 -70 0
-67 -70 0
-68 -70 0
-69 -70 0
6 -70 0
-41 -71 0
-76 -43 -6 0
-76 43 6 0
43 76 -6 0
76 6 -43 0
-77 -5 -44 0
44 -77 5 0
-5 77 44 0
5 77 -44 0
-78 -4 -45 0
4 -78 45 0
78 -4 45 0
78 4 -45 0
-17 -79 0
-18 -79 0
-19 -79 0
-20 -79 0
-21 -79 0
-22 -79 0
-23 -79 0
-24 -79 0
-25 -79 0
-26 -79 0
-27 -79 0
-28 -79 0
-29 -79 0
-30 -79 0
-31 -79 0
-32 -79 0
-33 -79 0
-34 -79 0
-35 -79 0
-36 -79 0
-37 -79 0
-38 -79 0
-39 -79 0
-40 -79 0
-41 -79 0
42 -79 0
-76 -79 0
-77 -79 0
-78 -79 0
7 -79 0
41 80 0
-86 -7 -42 0
42 -86 7 0
-7 86 42 0
-42 86 7 0
-43 -87 -6 0
-87 43 6 0
87 43 -6 0
87 6 -43 0
-5 -88 -44 0
44 -88 5 0
88 -5 44 0
5 88 -44 0
-89 -4 -45 0
-89 4 45 0
89 -4 45 0
4 89 -45 0
-17 -90 0
-18 -90 0
-19 -90 0
-20 -90 0
-21 -90 0
-22 -90 0
-23 -90 0
-24 -90 0
-25 -90 0
-26 -90 0
-27 -90 0
-28 -90 0
-29 -90 0
-30 -90 0
-31 -90 0
-32 -90 0
-33 -90 0
-34 -90 0
-35 -90 0
-36 -90 0
-37 -90 0
-38 -90 0
-39 -90 0
-40 -90 0
41 -90 0
-86 -90 0
-87 -90 0
-88 -90 0
-89 -90 0
8 -90 0
-38 -91 0
-8 -98 -41 0
8 -98 41 0
98 -8 41 0
-41 98 8 0
-99 -7 -42 0
42 -99 7 0
99 -7 42 0
-42 99 7 0
-43 -100 -6 0
6 -100 43 0
43 100 -6 0
100 6 -43 0
-101 -4 -45 0
4 -101 45 0
101 -4 45 0
101 4 -45 0
-2 -102 0
-102 47 0
2 102 -47 0
-17 -103 0
-18 -103 0
-19 -103 0
-20 -103 0
-21 -103 0
-22 -103 0
-23 -103 0
-24 -103 0
-25 -103 0
-26 -103 0
-27 -103 0
-28 -103 0
-29 -103 0
-30 -103 0
-31 -103 0
-32 -103 0
-33 -103 0
-34 -103 0
-35 -103 0
-36 -103 0
-37 -103 0
-38 -103 0
-39 -103 0
40 -103 0
-98 -103 0
-99 -103 0
-100 -103 0
-101 -103 0
-102 -103 0
9 -103 0
39 104 0
-112 -8 -41 0
8 -112 41 0
-8 112 41 0
-41 112 8 0
-113 -7 -42 0
42 -113 7 0
-7 113 42 0
113 -42 7 0
-114 -43 -6 0
6 -114 43 0
114 43 -6 0
6 114 -43 0
-115 -5 -44 0
44 -115 5 0
-5 115 44 0
115 5 -44 0
-116 -4 -45 0
4 -116 45 0
-4 116 45 0
4 116 -45 0
-3 -117 -46 0
46 -117 3 0
46 117 -3 0
-46 117 3 0
-2 -118 0
47 -118 0
2 118 -47 0
-17 -119 0
-18 -119 0
-19 -119 0
-20 -119 0
-21 -119 0
-22 -119 0
-23 -119 0
-24 -119 0
-25 -119 0
-26 -119 0
-27 -119 0
-28 -119 0
-29 -119 0
-30 -119 0
-31 -119 0
-32 -119 0
-33 -119 0
-34 -119 0
-35 -119 0
-36 -119 0
-37 -119 0
-38 -119 0
39 -119 0
-112 -119 0
-113 -119 0
-114 -119 0
-115 -119 0
-116 -119 0
-117 -119 0
-118 -119 0
10 -119 0
-37 -120 0
-129 -10 -39 0
10 -129 39 0
-10 129 39 0
10 129 -39 0
-130 -40 -9 0
9 -130 40 0
-9 130 40 0
130 9 -40 0
-131 -8 -41 0
8 -131 41 0
-8 131 41 0
131 -41 8 0
-132 -5 -44 0
-132 44 5 0
132 -5 44 0
5 132 -44 0
-133 -4 -45 0
4 -133 45 0
-4 133 45 0
133 4 -45 0
-134 -3 -46 0
46 -134 3 0
134 46 -3 0
-46 134 3 0
-2 -135 0
-135 47 0
135 -47 2 0
-17 -136 0
-18 -136 0
-19 -136 0
-20 -136 0
-21 -136 0
-22 -136 0
-23 -136 0
-24 -136 0
-25 -136 0
-26 -136 0
-27 -136 0
-28 -136 0
-29 -136 0
-30 -136 0
-31 -136 0
-32 -136 0
-33 -136 0
-34 -136 0
-35 -136 0
-36 -136 0
-37 -136 0
38 -136 0
-129 -136 0
-130 -136 0
-131 -136 0
-132 -136 0
-133 -136 0
-134 -136 0
-135 -136 0
11 -136 0
37 137 0
-11 -147 -38 0
38 -147 11 0
-11 147 38 0
11 147 -38 0
-10 -148 -39 0
10 -148 39 0
148 -10 39 0
148 10 -39 0
-40 -149 -9 0
9 -149 40 0
-9 149 40 0
149 9 -40 0
-150 -8 -41 0
8 -150 41 0
-8 150 41 0
-41 150 8 0
-151 -5 -44 0
-151 44 5 0
151 -5 44 0
5 151 -44 0
-152 -4 -45 0
-152 4 45 0
-4 152 45 0
152 4 -45 0
-153 -3 -46 0
-153 46 3 0
46 153 -3 0
153 -46 3 0
-2 -154 0
47 -154 0
-47 2 154 0
-17 -155 0
-18 -155 0
-19 -155 0
-20 -155 0
-21 -155 0
-22 -155 0
-23 -155 0
-24 -155 0
-25 -155 0
-26 -155 0
-27 -155 0
-28 -155 0
-29 -155 0
-30 -155 0
-31 -155 0
-32 -155 0
-33 -155 0
-34 -155 0
-35 -155 0
-36 -155 0
37 -155 0
-147 -155 0
-148 -155 0
-149 -155 0
-150 -155 0
-151 -155 0
-152 -155 0
-153 -155 0
-154 -155 0
12 -155 0
-34 -156 0
-12 -167 -37 0
12 -167 37 0
37 167 -12 0
167 12 -37 0
-11 -168 -38 0
38 -168 11 0
-11 168 38 0
11 168 -38 0
-169 -8 -41 0
8 -169 41 0
-8 169 41 0
-41 169 8 0
-170 -7 -42 0
-170 42 7 0
170 -7 42 0
-42 170 7 0
-171 -43 -6 0
43 6 -171 0
171 43 -6 0
171 6 -43 0
-5 -172 -44 0
44 -172 5 0
172 -5 44 0
172 5 -44 0
-173 -4 -45 0
-173 4 45 0
-4 173 45 0
173 4 -45 0
-174 -3 -46 0
46 -174 3 0
174 46 -3 0
174 -46 3 0
47 -175 0
-2 47 0
2 -47 175 0
-17 -176 0
-18 -176 0
-19 -176 0
-20 -176 0
-21 -176 0
-22 -176 0
-23 -176 0
-24 -176 0
-25 -176 0
-26 -176 0
-27 -176 0
-28 -176 0
-29 -176 0
-30 -176 0
-31 -176 0
-32 -176 0
-33 -176 0
-34 -176 0
-35 -176 0
36 -176 0
-167 -176 0
-168 -176 0
-169 -176 0
-170 -176 0
-171 -176 0
-172 -176 0
-173 -176 0
-174 -176 0
-175 -176 0
13 -176 0
-33 -177 0
-189 -12 -37 0
-189 12 37 0
37 189 -12 0
189 12 -37 0
-10 -190 -39 0
-190 10 39 0
190 -10 39 0
190 10 -39 0
-191 -40 -9 0
-191 9 40 0
191 -9 40 0
191 9 -40 0
-8 -192 -41 0
-192 8 41 0
192 -8 41 0
-41 192 8 0
-7 -193 -42 0
-193 42 7 0
-7 193 42 0
-42 193 7 0
-194 -43 -6 0
-194 43 6 0
43 194 -6 0
6 194 -43 0
-5 -195 -44 0
44 -195 5 0
-5 195 44 0
195 5 -44 0
-4 -196 -45 0
-196 4 45 0
196 -4 45 0
4 196 -45 0
-197 -3 -46 0
-197 46 3 0
46 197 -3 0
-46 197 3 0
-198 -2 0
-198 47 0
-47 2 198 0
-17 -199 0
-18 -199 0
-19 -199 0
-20 -199 0
-21 -199 0
-22 -199 0
-23 -199 0
-24 -199 0
-25 -199 0
-26 -199 0
-27 -199 0
-28 -199 0
-29 -199 0
-30 -199 0
-31 -199 0
-32 -199 0
-33 -199 0
-34 -199 0
35 -199 0
-189 -199 0
-190 -199 0
-191 -199 0
-192 -199 0
-193 -199 0
-194 -199 0
-195 -199 0
-196 -199 0
-197 -199 0
-198 -199 0
14 -199 0
-32 -200 0
-35 -213 -14 0
14 -213 35 0
-14 213 35 0
213 14 -35 0
-13 -214 -36 0
13 -214 36 0
-13 214 36 0
214 13 -36 0
-12 -215 -37 0
12 -215 37 0
37 215 -12 0
12 215 -37 0
-11 -216 -38 0
38 -216 11 0
-11 216 38 0
216 11 -38 0
-217 -10 -39 0
10 -217 39 0
217 -10 39 0
10 217 -39 0
-218 -7 -42 0
-218 42 7 0
-7 218 42 0
218 -42 7 0
-219 -43 -6 0
6 -219 43 0
43 219 -6 0
6 219 -43 0
-5 -220 -44 0
44 -220 5 0
220 -5 44 0
220 5 -44 0
-4 -221 -45 0
4 -221 45 0
221 -4 45 0
4 221 -45 0
-3 -222 -46 0
46 -222 3 0
222 46 -3 0
-46 222 3 0
-2 -223 0
-223 47 0
223 2 -47 0
-17 -224 0
-18 -224 0
-19 -224 0
-20 -224 0
-21 -224 0
-22 -224 0
-23 -224 0
-24 -224 0
-25 -224 0
-26 -224 0
-27 -224 0
-28 -224 0
-29 -224 0
-30 -224 0
-31 -224 0
-32 -224 0
-33 -224 0
34 -224 0
-213 -224 0
-214 -224 0
-215 -224 0
-216 -224 0
-217 -224 0
-218 -224 0
-219 -224 0
-220 -224 0
-221 -224 0
-222 -224 0
-223 -224 0
15 -224 0
-32 -225 0
-239 -34 -15 0
15 -239 34 0
239 -15 34 0
239 -34 15 0
-13 -240 -36 0
13 -240 36 0
-13 240 36 0
13 240 -36 0
-241 -12 -37 0
12 -241 37 0
241 37 -12 0
241 12 -37 0
-242 -11 -38 0
38 -242 11 0
-11 242 38 0
242 11 -38 0
-243 -40 -9 0
9 -243 40 0
243 -9 40 0
9 243 -40 0
-244 -8 -41 0
-244 8 41 0
244 -8 41 0
244 -41 8 0
-7 -245 -42 0
-245 42 7 0
-7 245 42 0
245 -42 7 0
-246 -43 -6 0
6 -246 43 0
246 43 -6 0
246 6 -43 0
-5 -247 -44 0
44 -247 5 0
247 -5 44 0
5 247 -44 0
-248 -4 -45 0
4 -248 45 0
248 -4 45 0
4 248 -45 0
-249 -3 -46 0
46 -249 3 0
249 46 -3 0
-46 249 3 0
-2 -250 0
-250 47 0
250 -47 2 0
-17 -251 0
-18 -251 0
-19 -251 0
-20 -251 0
-21 -251 0
-22 -251 0
-23 -251 0
-24 -251 0
-25 -251 0
-26 -251 0
-27 -251 0
-28 -251 0
-29 -251 0
-30 -251 0
-31 -251 0
-32 -251 0
33 -251 0
-239 -251 0
-240 -251 0
-241 -251 0
-242 -251 0
-243 -251 0
-244 -251 0
-245 -251 0
-246 -251 0
-247 -251 0
-248 -251 0
-249 -251 0
-250 -251 0
16 -251 0
109 -5 44 0
107 42 -106 0
-6 108 -107 0
106 41 -105 0
-4 110 45 0
238 46 -3 0
43 82 -6 0
105 40 -104 0
-5 236 44 0
237 -4 -236 0
-39 -104 -38 0
-8 207 41 0
234 -7 42 0
-57 -43 -44 0
-5 95 44 0
233 -8 41 0
232 -9 40 0
-82 83 -5 0
208 -7 -207 0
231 -10 39 0
230 -11 38 0
-228 229 -12 0
-4 58 45 0
-13 228 36 0
84 -4 -83 0
-14 227 -226 0
-177 -32 0
-225 -31 0
211 -210 45 0
-43 -63 -42 0
97 46 -96 0
46 59 -3 0
-63 64 -5 0
46 212 -211 0
-4 65 -64 0
66 46 -3 0
-120 -36 0
-10 121 39 0
-50 -44 0
-9 122 40 0
-8 123 41 0
-7 124 -123 0
-6 125 -124 0
126 -125 -5 0
-4 127 45 0
46 128 -3 0
-8 183 -182 0
205 -10 39 0
42 93 -92 0
184 42 -183 0
203 37 -12 0
186 -5 44 0
-71 -40 0
-4 187 45 0
185 43 -6 0
-48 -45 0
-71 -39 0
-138 139 39 0
-91 -37 0
140 -9 40 0
-48 -44 0
-7 142 42 0
-5 73 44 0
-6 143 -142 0
144 -5 44 0
-4 145 45 0
138 -11 38 0
74 -73 45 0
146 -3 -145 0
75 46 -74 0
-156 -33 0
38 -11 158 0
159 -10 39 0
-9 160 -159 0
-8 161 -160 0
46 54 -3 0
-7 162 42 0
-6 163 -162 0
164 44 -163 0
-4 165 -164 0
-3 166 -165 0
-7 81 42 0
-156 -32 0
46 111 -3 0
41 141 -140 0
72 43 -6 0
-200 -31 0
188 -3 -187 0
-71 -38 0
-71 -37 0
-71 -36 0
-13 202 36 0
204 -203 38 0
-3 85 -84 0
182 40 -181 0
181 -180 39 0
-50 -43 0
-50 -42 0
180 -179 38 0
-120 -35 0
179 -178 -12 0
-43 -63 -41 0
-43 -63 -40 0
-63 -43 -39 0
-225 -30 0
-225 -29 0
-177 -31 0
-177 -30 0
-177 -29 0
-177 -28 0
-4 96 45 0
-209 210 -5 0
-6 209 -208 0
-6 235 -234 0
94 43 -93 0
-9 206 40 0
-137 -36 -37 0
-91 -36 0
-91 -35 0
-11 -199 38 0
-199 11 -38 0
-137 -35 -37 0
-34 -137 -37 0
-33 -137 -37 0
-32 -137 -37 0
-14 -251 35 0
-251 14 -35 0
-119 -9 40 0
9 -119 -40 0
-137 -31 -37 0
-30 -137 -37 0
-29 -137 -37 0
-28 -137 -37 0
-27 -137 -37 0
-26 -137 -37 0
-137 -25 -37 0
-24 -137 -37 0
144 -143 -5 0
-103 46 -3 0
-46 -103 3 0
110 -4 -109 0
-9 -224 40 0
9 -224 -40 0
-109 110 45 0
4 -110 -45 0
-110 4 109 0
-110 -45 109 0
65 -64 45 0
65 -4 45 0
-65 4 -45 0
-65 4 64 0
-65 -45 64 0
-70 -5 44 0
5 -70 -44 0
122 40 -121 0
125 43 -124 0
-227 228 -13 0
-12 229 37 0
-8 161 41 0
128 46 -127 0
-125 126 44 0
-108 109 44 0
-7 -136 42 0
-42 -136 7 0
58 -4 -57 0
2 -52 -47 0
238 -3 -237 0
-9 105 40 0
237 -4 45 0
45 -62 -4 0
-62 4 -45 0
-8 106 41 0
-7 208 42 0
-235 236 -5 0
-6 82 -81 0
-5 83 44 0
-7 107 42 0
233 -8 -232 0
-9 232 -231 0
234 -7 -233 0
95 -94 -5 0
54 46 -53 0
-37 -39 -104 0
-39 -104 -36 0
-35 -104 -39 0
-104 -34 -39 0
-11 230 -229 0
19 -1 20 -47 21 22 23 24 25 26 27 28 29 30 31 32 17 18 34 33 36 35 39 40 37 38 41 43 46 42 44 45 49 0
46 17 18 19 20 21 22 23 24 25 26 27 28 29 30 31 32 33 34 35 36 39 38 37 40 41 42 43 44 45 1 -47 49 0
127 -126 45 0
-2 51 46 0
51 47 46 0
51 -50 -2 0
47 51 -50 0
-47 2 -51 0
2 -46 50 -51 0
-47 -51 50 -46 0
37 -12 157 0
-157 12 -37 0
-14 227 35 0
41 123 -122 0
66 -3 -65 0
-121 10 -39 0
66 46 -65 0
-66 -46 3 0
-66 3 65 0
-46 -66 65 0
109 -108 -5 0
5 -109 -44 0
-109 108 -44 0
-109 108 5 0
108 43 -6 0
73 44 -72 0
-144 145 45 0
142 42 -141 0
-4 145 -144 0
-145 4 -45 0
-145 -45 144 0
-145 4 144 0
-7 142 -141 0
-42 -142 7 0
-142 -42 141 0
-142 7 141 0
40 206 -205 0
-155 -7 42 0
-42 -155 7 0
-10 139 39 0
201 35 -14 0
-201 14 -35 0
-138 139 -10 0
-139 10 138 0
10 -139 -39 0
-39 -139 138 0
59 -3 -58 0
46 59 -58 0
-46 3 -59 0
58 3 -59 0
58 -46 -59 0
184 -7 42 0
46 -90 -3 0
-90 -46 3 0
-50 -41 0
-50 -40 0
-50 -39 0
-50 -38 0
158 38 -157 0
-8 207 -206 0
-9 140 -139 0
160 40 -159 0
40 140 -139 0
9 -140 -40 0
9 -140 139 0
-140 -40 139 0
37 179 -12 0
212 46 -3 0
-3 212 -211 0
3 -212 211 0
-46 -212 3 0
-46 -212 211 0
143 43 -6 0
-143 144 44 0
-144 5 -44 0
-144 143 5 0
-144 143 -44 0
-230 231 -10 0
-10 181 39 0
-41 -80 -40 0
-41 -80 -39 0
-41 -80 -38 0
-41 -80 -37 0
-80 -41 -36 0
-35 -80 -41 0
-120 -34 0
-120 -33 0
-120 -32 0
-120 -31 0
-120 -30 0
-120 -29 0
-7 81 -80 0
211 -4 45 0
42 81 -80 0
-42 -81 7 0
80 -81 7 0
80 -81 -42 0
-11 180 -179 0
-7 124 42 0
84 -4 45 0
42 124 -123 0
-124 -42 7 0
7 -124 123 0
-124 -42 123 0
-200 -30 0
-200 -29 0
75 46 -3 0
46 97 -3 0
-10 -176 39 0
10 -176 -39 0
187 -4 -186 0
165 -4 45 0
75 -3 -74 0
3 74 -75 0
3 -46 -75 0
-46 74 -75 0
-3 54 -53 0
3 -46 -54 0
53 -46 -54 0
3 53 -54 0
230 -229 38 0
-230 11 -38 0
229 -230 11 0
-230 229 -38 0
-228 229 37 0
-229 12 -37 0
228 -229 12 0
-229 228 -37 0
127 -4 -126 0
-127 4 -45 0
-45 -127 126 0
4 -127 126 0
94 43 -6 0
235 43 -234 0
166 46 -165 0
82 43 -81 0
-82 6 -43 0
-82 6 81 0
-82 -43 81 0
210 -209 44 0
-57 -42 -44 0
-41 -57 -44 0
231 -230 39 0
10 -231 -39 0
-231 10 230 0
-231 -39 230 0
209 43 -6 0
94 -6 -93 0
6 -94 93 0
6 -94 -43 0
-43 -94 93 0
43 125 -6 0
-125 6 -43 0
-125 6 124 0
-125 -43 124 0
43 185 -184 0
186 -185 -5 0
-95 96 45 0
158 -11 -157 0
-38 -158 11 0
-38 -158 157 0
11 -158 157 0
41 183 -182 0
-8 123 -122 0
-123 -41 8 0
-123 -41 122 0
-123 8 122 0
203 -202 -12 0
-10 159 -158 0
-72 6 -43 0
234 42 -233 0
-42 -234 7 0
7 -234 233 0
-42 -234 233 0
93 -7 -92 0
233 41 -232 0
-41 -233 8 0
-233 8 232 0
-41 -233 232 0
-82 83 44 0
-83 5 -44 0
-83 82 5 0
-83 82 -44 0
227 -226 35 0
-227 14 -35 0
14 -227 226 0
-227 -35 226 0
92 -8 41 0
-41 -92 8 0
64 -5 44 0
-156 -31 0
-156 -30 0
-3 128 -127 0
-128 -46 3 0
-46 -128 127 0
-128 3 127 0
41 207 -206 0
-41 -207 8 0
-207 8 206 0
-41 -207 206 0
-57 58 45 0
4 -58 -45 0
-58 4 57 0
-58 -45 57 0
-225 -28 0
-225 -27 0
141 -8 41 0
-9 40 160 0
9 -160 -40 0
-160 9 159 0
-160 -40 159 0
46 85 -84 0
237 -236 45 0
4 -237 -45 0
4 -237 236 0
-45 -237 236 0
74 -4 45 0
-11 204 38 0
111 -3 -110 0
46 238 -237 0
-238 -46 3 0
3 -238 237 0
-46 -238 237 0
-5 73 -72 0
-73 5 -44 0
-73 72 -44 0
-73 5 72 0
-5 126 44 0
-126 5 -44 0
-126 125 5 0
125 -126 -44 0
-201 202 -13 0
-5 164 44 0
-186 187 45 0
4 -187 -45 0
-187 4 186 0
-45 -187 186 0
46 188 -3 0
95 -94 44 0
5 -95 -44 0
-95 94 5 0
-95 94 -44 0
181 -180 -10 0
10 -181 180 0
-181 10 -39 0
-181 -39 180 0
178 -13 36 0
-178 13 -36 0
143 43 -142 0
-143 6 -43 0
-143 6 142 0
-143 -43 142 0
-178 179 37 0
12 -179 -37 0
178 -179 12 0
178 -179 -37 0
-5 164 -163 0
5 -164 163 0
5 -164 -44 0
163 -164 -44 0
188 46 -187 0
-188 -46 3 0
-188 3 187 0
-46 -188 187 0
108 43 -107 0
-108 6 -43 0
6 -108 107 0
-108 -43 107 0
-4 211 -210 0
-211 4 210 0
-211 4 -45 0
-45 -211 210 0
202 -201 36 0
-202 13 -36 0
-202 201 13 0
-202 201 -36 0
204 -11 -203 0
203 -204 11 0
11 -204 -38 0
-204 203 -38 0
74 -4 -73 0
-74 4 73 0
-74 4 -45 0
-45 -74 73 0
105 -9 -104 0
-105 104 9 0
-105 9 -40 0
104 -105 -40 0
205 -204 -10 0
138 38 -137 0
141 -8 -140 0
8 -141 140 0
-141 -41 8 0
-141 -41 140 0
-11 138 -137 0
-138 11 -38 0
-138 -38 137 0
-138 11 137 0
-204 205 39 0
10 -205 -39 0
10 -205 204 0
-39 -205 204 0
46 146 -145 0
43 163 -162 0
42 208 -207 0
-208 -42 7 0
-208 7 207 0
-208 -42 207 0
43 163 -6 0
-163 6 -43 0
-163 6 162 0
-163 -43 162 0
46 146 -3 0
3 -46 -146 0
3 145 -146 0
-46 145 -146 0
64 -63 44 0
-64 5 -44 0
-64 63 5 0
-64 63 -44 0
162 42 -161 0
182 -9 -181 0
-9 182 40 0
9 -182 -40 0
-182 9 181 0
-182 -40 181 0
162 -7 -161 0
-162 -42 7 0
-42 -162 161 0
7 -162 161 0
-9 122 -121 0
-122 9 -40 0
-122 -40 121 0
-122 9 121 0
-7 93 42 0
-42 -93 7 0
-93 7 92 0
-93 -42 92 0
180 -11 38 0
-180 11 -38 0
-180 179 11 0
-180 179 -38 0
-45 -53 -44 0
-53 -45 -43 0
-235 236 44 0
-236 5 -44 0
-236 235 5 0
-236 235 -44 0
-3 166 46 0
-166 -46 3 0
-166 3 165 0
-46 -166 165 0
40 232 -231 0
-232 9 -40 0
-232 9 231 0
-232 -40 231 0
183 -8 41 0
-183 -41 8 0
8 -183 182 0
-183 -41 182 0
-7 184 -183 0
-184 7 183 0
-184 -42 7 0
-42 -184 183 0
-7 107 -106 0
7 -107 106 0
-107 -42 7 0
-42 -107 106 0
96 -4 -95 0
4 -96 -45 0
-45 -96 95 0
4 -96 95 0
185 -6 -184 0
6 -185 -43 0
-43 -185 184 0
-185 6 184 0
186 -185 44 0
5 -186 -44 0
185 -186 5 0
185 -186 -44 0
159 -158 39 0
-159 10 -39 0
-159 10 158 0
-159 -39 158 0
209 43 -208 0
6 -209 -43 0
-209 6 208 0
-209 -43 208 0
228 -227 36 0
13 -228 -36 0
227 -228 13 0
227 -228 -36 0
97 -3 -96 0
-97 3 96 0
3 -46 -97 0
-97 -46 96 0
203 -202 37 0
12 -203 -37 0
202 -203 12 0
202 -203 -37 0
210 -5 44 0
-210 5 -44 0
209 -210 5 0
-210 209 -44 0
111 46 -110 0
-46 -111 3 0
-111 3 110 0
-111 -46 110 0
46 85 -3 0
3 -46 -85 0
84 3 -85 0
-46 84 -85 0
43 235 -6 0
-235 6 -43 0
-235 6 234 0
-235 -43 234 0
226 -15 34 0
-226 -34 15 0
106 -8 -105 0
8 -106 105 0
-41 -106 8 0
-41 -106 105 0
206 -9 -205 0
9 -206 -40 0
-40 -206 205 0
9 -206 205 0
84 -83 45 0
4 -84 -45 0
-84 4 83 0
-84 -45 83 0
41 161 -160 0
-161 8 -41 0
-161 8 160 0
-161 -41 160 0
165 -164 45 0
-165 4 -45 0
-165 4 164 0
-45 -165 164 0
-199 36 -13 0
-199 13 -36 0
-38 -13 19 20 21 22 23 24 25 26 27 28 29 30 31 32 17 18 34 33 -36 -35 -11 199 194 195 196 197 190 189 193 192 191 198 0
17 13 19 20 21 22 23 24 25 26 27 28 29 30 31 32 18 34 33 36 -38 -35 -11 199 194 195 196 197 190 189 193 192 191 198 0
38 -13 19 20 21 22 23 24 25 26 27 28 29 30 31 32 17 18 34 33 -36 -35 11 199 194 195 196 197 190 189 193 192 191 198 0
17 13 19 20 21 22 23 24 25 26 27 28 29 30 31 32 18 34 33 36 38 -35 11 199 194 195 196 197 190 189 193 192 191 198 0
41 -224 -8 0
-41 -224 8 0
-41 -8 19 20 21 22 23 24 25 26 27 28 29 30 31 32 18 17 33 -40 -34 -9 224 218 219 220 221 222 214 213 217 216 215 223 0
33 8 19 20 21 22 23 24 25 26 27 28 29 30 31 32 18 17 41 -40 -34 -9 224 218 219 220 221 222 214 213 217 216 215 223 0
-41 -8 19 20 21 22 23 24 25 26 27 28 29 30 31 32 18 17 33 40 -34 9 224 218 219 220 221 222 214 213 217 216 215 223 0
40 8 19 20 21 22 23 24 25 26 27 28 29 30 31 32 18 17 33 41 -34 9 224 218 219 220 221 222 214 213 217 216 215 223 0
-103 -5 44 0
-103 5 -44 0
19 -46 -44 20 21 22 23 24 25 26 27 28 29 30 31 32 17 18 34 33 39 35 36 38 -5 -40 -3 103 98 37 101 100 99 102 0
-46 44 19 20 21 22 23 24 25 26 27 28 29 30 31 32 17 18 34 33 39 35 36 38 5 -40 -3 103 98 37 101 100 99 102 0
19 46 -44 20 21 22 23 24 25 26 27 28 29 30 31 32 17 18 34 33 39 35 36 38 -5 -40 3 103 98 37 101 100 99 102 0
19 46 35 20 21 22 23 24 25 26 27 28 29 30 31 32 17 18 34 33 39 36 37 38 5 -40 3 103 98 44 101 100 99 102 0
-155 43 -6 0
-155 6 -43 0
-6 -43 35 20 21 22 23 24 25 26 27 28 29 30 31 32 19 17 18 34 -42 33 36 -7 155 -37 152 153 148 151 150 149 147 0
35 6 43 20 21 22 23 24 25 26 27 28 29 30 31 32 19 17 18 34 -42 33 36 -7 155 -37 152 153 148 151 150 149 147 0
-6 -43 42 20 21 22 23 24 25 26 27 28 29 30 31 32 19 17 18 34 -37 35 33 7 155 36 152 153 148 151 150 149 147 0
42 6 43 20 21 22 23 24 25 26 27 28 29 30 31 32 19 17 18 34 -37 35 33 7 155 36 152 153 148 151 150 149 147 0
-136 43 -6 0
6 -136 -43 0
-6 -43 19 20 21 22 23 24 25 26 27 28 29 30 31 32 17 18 34 33 -42 35 36 -38 -7 136 37 134 129 133 132 131 130 135 0
19 6 35 20 21 22 23 24 25 26 27 28 29 30 31 32 17 18 34 33 -42 36 37 -38 -7 136 43 134 129 133 132 131 130 135 0
-6 -43 19 20 21 22 23 24 25 26 27 28 29 30 31 32 17 18 34 33 42 35 36 -38 7 136 37 134 129 133 132 131 130 135 0
42 6 19 20 21 22 23 24 25 26 27 28 29 30 31 32 17 18 34 33 43 35 36 -38 7 136 37 134 129 133 132 131 130 135 0
-46 -2 39 -41 21 22 23 24 25 26 27 28 29 30 31 32 20 19 18 17 34 33 35 36 38 37 40 -3 90 86 89 88 87 0
-46 47 39 -41 21 22 23 24 25 26 27 28 29 30 31 32 20 19 18 17 34 33 35 36 38 37 40 -3 90 86 89 88 87 0
46 -2 39 -41 21 22 23 24 25 26 27 28 29 30 31 32 20 19 18 17 34 33 35 36 38 37 40 3 90 86 89 88 87 0
46 47 39 -41 21 22 23 24 25 26 27 28 29 30 31 32 20 19 18 17 34 33 35 36 38 37 40 3 90 86 89 88 87 0
-10 -251 39 0
-251 10 -39 0
17 -35 20 -10 21 22 23 24 25 26 27 28 29 30 31 32 18 19 -33 -14 251 -39 244 245 246 247 248 249 239 243 242 241 240 250 0
17 -35 20 10 21 22 23 24 25 26 27 28 29 30 31 32 18 19 -33 -14 251 39 244 245 246 247 248 249 239 243 242 241 240 250 0
17 35 20 -10 21 22 23 24 25 26 27 28 29 30 31 32 18 19 -33 14 251 -39 244 245 246 247 248 249 239 243 242 241 240 250 0
17 35 20 10 21 22 23 24 25 26 27 28 29 30 31 32 18 19 -33 14 251 39 244 245 246 247 248 249 239 243 242 241 240 250 0
-1 -40 35 20 21 22 23 24 25 26 27 28 29 30 31 32 19 17 18 34 33 36 -39 38 37 -9 119 116 117 112 115 114 113 118 0
-39 -40 17 18 19 20 21 22 23 24 25 26 27 28 29 30 31 32 33 34 35 36 37 38 1 -9 119 113 114 115 116 117 112 118 0
-1 40 35 20 21 22 23 24 25 26 27 28 29 30 31 32 19 17 18 34 33 36 -39 38 37 9 119 116 117 112 115 114 113 118 0
40 1 17 18 19 20 21 22 23 24 25 26 27 28 29 30 31 32 33 34 35 36 -39 38 37 9 119 113 114 115 116 117 112 118 0
-137 -23 -37 0
-137 -22 -37 0
-21 -137 -37 0
36 137 19 20 21 22 23 24 25 26 27 28 29 30 31 32 33 34 18 17 35 0
-20 -137 -37 0
-137 -17 -37 0
-137 -37 -19 0
-18 -137 -37 0
-1 -44 -43 20 21 22 23 24 25 26 27 28 29 30 31 32 19 17 18 34 35 36 33 39 37 38 40 42 41 68 -5 70 67 69 0
-44 1 -43 18 19 20 21 22 23 24 25 26 27 28 29 30 31 32 17 34 35 33 36 39 38 40 37 42 41 -5 70 68 67 69 0
-1 44 -43 20 21 22 23 24 25 26 27 28 29 30 31 32 19 17 18 34 35 36 33 39 37 38 40 42 41 68 5 70 67 69 0
44 1 -43 18 19 20 21 22 23 24 25 26 27 28 29 30 31 32 17 34 35 33 36 39 38 40 37 42 41 5 70 68 67 69 0
-79 46 -3 0
-79 -46 3 0
19 -3 39 20 21 22 23 24 25 26 27 28 29 30 31 32 17 18 34 33 35 36 40 38 37 41 -46 -2 79 -42 78 77 76 0
19 3 39 20 21 22 23 24 25 26 27 28 29 30 31 32 17 18 34 33 35 36 40 38 37 41 46 -2 79 -42 78 77 76 0
19 47 39 20 21 22 23 24 25 26 27 28 29 30 31 32 17 18 34 33 35 36 40 38 37 41 -46 -3 79 -42 78 77 76 0
19 47 39 20 21 22 23 24 25 26 27 28 29 30 31 32 17 18 34 33 35 36 40 38 37 41 46 3 79 -42 78 77 76 0
-50 -37 0
-50 -36 0
-50 -35 0
-45 42 -44 20 21 22 23 24 25 26 27 28 29 30 31 32 19 17 18 34 33 35 36 39 40 38 37 41 -1 60 43 -4 62 61 0
-45 1 -44 18 19 20 21 22 23 24 25 26 27 28 29 30 31 32 17 34 35 33 36 39 38 40 37 42 41 43 -4 62 60 61 0
-44 42 19 20 21 22 23 24 25 26 27 28 29 30 31 32 17 18 34 33 39 35 36 38 40 37 41 43 -1 60 45 4 62 61 0
45 1 -44 18 19 20 21 22 23 24 25 26 27 28 29 30 31 32 17 34 35 33 36 39 38 40 37 42 41 43 4 62 60 61 0
38 121 39 0
121 -10 38 0
-120 121 39 0
-120 121 -10 0
-121 -39 120 -38 0
-38 -121 120 10 0
-48 -43 0
-48 -42 0
-48 -41 0
-48 -40 0
-48 -39 0
-48 -38 0
-48 -37 0
-48 -36 0
-48 -35 0
-63 -43 -38 0
-43 -63 -37 0
-63 -43 -36 0
36 20 -1 35 21 22 23 24 25 26 27 28 29 30 31 32 19 17 18 34 33 39 38 40 37 42 41 -46 44 43 45 -2 52 0
-46 1 17 18 19 20 21 22 23 24 25 26 27 28 29 30 31 32 33 34 35 36 39 38 37 40 41 42 43 44 45 -2 52 0
36 20 47 35 21 22 23 24 25 26 27 28 29 30 31 32 19 17 18 34 33 39 38 40 37 42 41 -46 44 43 45 -1 52 0
-46 17 18 19 20 21 22 23 24 25 26 27 28 29 30 31 32 33 34 35 36 39 38 37 40 41 42 43 44 45 1 47 52 0
43 72 42 0
-6 72 42 0
43 72 -71 0
-6 72 -71 0
-72 -42 71 -43 0
6 -72 71 -42 0
-176 -9 40 0
9 -176 -40 0
20 -39 -9 19 21 22 23 24 25 26 27 28 29 30 31 32 17 18 34 33 -40 -36 -10 176 35 172 173 174 167 171 170 169 168 175 0
20 -39 9 19 21 22 23 24 25 26 27 28 29 30 31 32 17 18 34 33 40 -36 -10 176 35 172 173 174 167 171 170 169 168 175 0
20 39 -9 19 21 22 23 24 25 26 27 28 29 30 31 32 17 18 34 33 -40 -36 10 176 35 172 173 174 167 171 170 169 168 175 0
20 39 9 19 21 22 23 24 25 26 27 28 29 30 31 32 17 18 34 33 40 -36 10 176 35 172 173 174 167 171 170 169 168 175 0
40 -45 20 -2 21 22 23 24 25 26 27 28 29 30 31 32 19 17 18 34 56 33 35 36 37 39 38 42 41 43 44 -1 55 0
40 -45 20 47 21 22 23 24 25 26 27 28 29 30 31 32 19 17 18 34 56 33 35 36 37 39 38 42 41 43 44 -1 55 0
-45 1 17 18 19 20 21 22 23 24 25 26 27 28 29 30 31 32 33 34 35 36 39 38 37 40 41 42 43 44 -2 56 55 0
-45 17 18 19 20 21 22 23 24 25 26 27 28 29 30 31 32 33 34 35 36 39 38 37 40 41 42 43 44 1 47 56 55 0
33 226 -15 0
226 34 33 0
226 -225 -15 0
226 -225 34 0
-226 -33 225 15 0
-33 -226 225 -34 0
36 -12 157 0
36 37 157 0
35 -156 157 -12 0
-156 35 157 37 0
-157 -36 156 12 0
-35 -36 -157 12 0
-157 -36 156 -37 0
-35 -36 -157 -37 0
-91 -34 0
-91 -33 0
-91 -32 0
-91 -31 0
1 -3 -51 52 0
-3 -51 -1 52 0
201 35 34 0
201 34 -14 0
-200 201 35 33 0
33 201 -14 -200 0
14 -34 200 -201 0
14 -201 -33 -34 0
-34 -35 200 -201 0
-33 -201 -35 -34 0
92 41 40 0
92 -8 40 0
-91 92 41 39 0
-8 92 39 -91 0
-92 8 -40 91 0
-92 8 -40 -39 0
-92 -40 91 -41 0
-41 -92 -39 -40 0
35 178 36 0
178 -13 35 0
-177 178 36 34 0
34 178 -13 -177 0
-35 -178 177 13 0
-35 -34 -178 13 0
-36 -35 177 -178 0
-34 -35 -178 -36 0
-225 -26 0
-225 -25 0
-225 -24 0
-225 -23 0
-50 -34 0
-50 -33 0
-50 -32 0
-50 -31 0
-33 -104 -39 0
-39 -32 -104 0
-39 -31 -104 0
-39 -30 -104 0
17 225 19 20 21 22 23 24 25 26 27 28 29 30 31 32 18 0
-225 -22 0
-225 -18 0
-225 -21 0
-225 -20 0
-225 -19 0
-225 -17 0
-177 -27 0
-177 -26 0
-177 -25 0
-177 -24 0
-177 -23 0
177 33 19 20 21 22 23 24 25 26 27 28 29 30 31 32 17 18 0
-177 -22 0
-177 -18 0
-177 -21 0
-177 -20 0
-177 -19 0
-177 -17 0
2 1 48 -47 0
-1 2 -47 48 0
-48 -1 49 -2 0
1 -2 -48 49 0
-50 -30 0
-50 -29 0
-50 -28 0
-50 -27 0
-50 -26 0
-50 -25 0
-35 -63 -43 0
-30 -63 -43 0
-63 -34 -43 0
-63 -33 -43 0
-32 -63 -43 0
-31 -63 -43 0
35 40 42 20 21 22 23 24 25 26 27 28 29 30 31 32 19 17 18 34 39 33 36 38 37 41 43 44 45 50 0
-50 -24 0
-50 -18 0
-50 -23 0
-50 -22 0
-50 -21 0
-50 -20 0
-50 -19 0
-50 -17 0
-48 -34 0
-48 -33 0
-48 -32 0
-48 -31 0
-48 -30 0
-48 -29 0
-48 -28 0
-45 -53 -42 0
-53 -45 -39 0
-53 -45 -41 0
-45 -53 -40 0
-45 -53 -38 0
-45 -53 -37 0
-53 -45 -36 0
20 35 46 19 21 22 23 24 25 26 27 28 29 30 31 32 17 18 34 33 36 39 38 40 37 42 41 43 44 45 48 0
-48 -27 0
-48 -18 0
-48 -26 0
-48 -25 0
-48 -24 0
-48 -23 0
-48 -22 0
-48 -21 0
-48 -20 0
-48 -19 0
-48 -17 0
17 19 200 20 21 22 23 24 25 26 27 28 29 30 31 32 18 0
-200 -28 0
-200 -27 0
-200 -26 0
-200 -25 0
-200 -24 0
-200 -23 0
-200 -22 0
-200 -17 0
-200 -21 0
-200 -20 0
-200 -19 0
-200 -18 0
20 37 120 36 21 22 23 24 25 26 27 28 29 30 31 32 19 34 18 17 33 35 0
-120 -28 0
-120 -27 0
-120 -26 0
-120 -25 0
-120 -24 0
-120 -23 0
-120 -22 0
-120 -21 0
-120 -17 0
-120 -20 0
-120 -19 0
-120 -18 0
34 33 156 18 21 22 23 24 25 26 27 28 29 30 31 32 19 20 17 0
-156 -29 0
-156 -18 0
-156 -28 0
-156 -27 0
-156 -26 0
-156 -25 0
-156 -24 0
-156 -23 0
-156 -22 0
-156 -21 0
-156 -20 0
-156 -19 0
-156 -17 0
20 35 36 38 21 22 23 24 25 26 27 28 29 30 31 32 19 17 18 34 33 37 104 0
-39 -29 -104 0
-104 -28 -39 0
-27 -39 -104 0
-26 -39 -104 0
-25 -39 -104 0
-39 -24 -104 0
-104 -23 -39 0
-18 -39 -104 0
-22 -39 -104 0
-21 -39 -104 0
-20 -39 -104 0
-39 -104 -19 0
-17 -39 -104 0
35 42 19 20 21 22 23 24 25 26 27 28 29 30 31 32 17 18 34 33 39 36 38 40 37 41 63 0
-29 -63 -43 0
-17 -63 -43 0
-28 -63 -43 0
-27 -63 -43 0
-26 -63 -43 0
-63 -25 -43 0
-24 -63 -43 0
-63 -23 -43 0
-22 -63 -43 0
-63 -21 -43 0
-20 -63 -43 0
-43 -63 -19 0
-63 -18 -43 0
35 36 38 19 21 22 23 24 25 26 27 28 29 30 31 32 20 17 18 34 33 37 91 0
-91 -30 0
-91 -29 0
-91 -28 0
-91 -27 0
-91 -26 0
-91 -25 0
-91 -24 0
-91 -23 0
-91 -22 0
-91 -21 0
-91 -20 0
-91 -19 0
-91 -18 0
-91 -17 0
39 40 35 20 21 22 23 24 25 26 27 28 29 30 31 32 19 17 18 34 33 36 37 38 80 0
-80 -34 -41 0
-80 -33 -41 0
-32 -80 -41 0
-31 -80 -41 0
-80 -29 -41 0
-80 -30 -41 0
-28 -80 -41 0
-24 -80 -41 0
-27 -80 -41 0
-80 -26 -41 0
-25 -80 -41 0
-23 -80 -41 0
-17 -80 -41 0
-80 -22 -41 0
-21 -80 -41 0
-20 -80 -41 0
-80 -41 -19 0
-18 -80 -41 0
39 42 19 20 21 22 23 24 25 26 27 28 29 30 31 32 17 18 34 33 35 36 37 38 40 41 43 44 53 0
-53 -35 -45 0
-28 -53 -45 0
-53 -34 -45 0
-53 -33 -45 0
-53 -32 -45 0
-31 -53 -45 0
-53 -30 -45 0
-53 -29 -45 0
-18 -53 -45 0
-27 -53 -45 0
-24 -53 -45 0
-26 -53 -45 0
-25 -53 -45 0
-53 -23 -45 0
-17 -53 -45 0
-22 -53 -45 0
-21 -45 -53 0
-20 -45 -53 0
-53 -45 -19 0
35 20 19 37 21 22 23 24 25 26 27 28 29 30 31 32 17 18 34 33 36 39 38 40 41 71 0
-71 -35 0
-71 -34 0
-71 -33 0
-71 -32 0
-71 -31 0
-71 -30 0
-71 -27 0
-71 -29 0
-71 -28 0
-71 -26 0
-71 -22 0
-71 -25 0
-71 -24 0
-71 -23 0
-71 -21 0
-71 -18 0
-71 -20 0
-71 -19 0
-71 -17 0
19 39 42 20 21 22 23 24 25 26 27 28 29 30 31 32 17 18 34 33 35 36 37 38 40 41 43 57 0
-40 -57 -44 0
-57 -39 -44 0
-57 -38 -44 0
-57 -37 -44 0
-57 -36 -44 0
-33 -57 -44 0
-57 -35 -44 0
-57 -34 -44 0
-57 -32 -44 0
-29 -57 -44 0
-31 -57 -44 0
-30 -57 -44 0
-28 -57 -44 0
-57 -27 -44 0
-57 -26 -44 0
-57 -25 -44 0
-57 -24 -44 0
-23 -57 -44 0
-57 -22 -44 0
-21 -57 -44 0
-57 -20 -44 0
-44 -57 -19 0
-18 -57 -44 0
-17 -57 -44 0
51 3 0
-49 -249 0
-49 -77 0
85 8 0
-175 -2 0
-54 -1 -4 -2 56 0
1 -2 -4 -54 56 0
4 54 0
-47 2 4 0
47 -1 -4 -54 56 0
1 -4 47 -54 56 0
12 146 0
-47 2 12 0
1 -12 47 -146 155 0
47 -1 -12 -146 155 0
1 -2 -12 -146 155 0
-2 -1 -12 -146 155 0
13 -47 2 0
13 166 0
-13 -166 -1 47 176 0
1 -13 47 -166 176 0
-2 -13 -1 -166 176 0
1 -2 -13 -166 176 0
15 212 0
-47 15 2 0
1 -15 47 -212 224 0
47 -15 -1 -212 224 0
1 -2 -15 -212 224 0
-2 -15 -1 -212 224 0
1 -2 -16 -238 251 0
-16 -238 -1 -2 251 0
16 238 0
16 2 -47 0
1 -16 47 -238 251 0
-16 47 -1 -238 251 0
1 111 10 0
1 2 10 -47 0
-2 -1 -10 -111 119 0
1 -2 -10 -111 119 0
47 -1 -10 -111 119 0
1 -10 47 -111 119 0
-1 10 111 0
-1 2 10 -47 0
-1 2 8 -47 0
1 -2 -8 -85 90 0
-2 -1 -8 -85 90 0
1 -8 47 -85 90 0
47 -1 -8 -85 90 0
1 -47 8 2 0
1 -6 47 -66 70 0
47 -1 -6 -66 70 0
1 -2 -6 -66 70 0
-2 -1 -6 -66 70 0
-1 6 66 0
-1 2 6 -47 0
1 6 66 0
6 -47 1 2 0
1 -2 -14 -188 199 0
-2 -14 -1 -188 199 0
-1 2 14 -47 0
-1 14 188 0
1 -14 47 -188 199 0
47 -14 -1 -188 199 0
-47 14 1 2 0
14 188 1 0
1 -7 47 -75 79 0
47 -1 -7 -75 79 0
1 -2 -7 -75 79 0
-2 -1 -7 -75 79 0
-1 7 75 0
-1 2 7 -47 0
7 1 75 0
1 2 7 -47 0
-2 -1 -5 -59 62 0
1 -2 -5 -59 62 0
5 59 1 0
1 -47 5 2 0
47 -1 -5 -59 62 0
1 -5 47 -59 62 0
-1 5 59 0
-1 2 5 -47 0
-1 -2 -9 -97 103 0
1 -2 -9 -97 103 0
-47 1 9 2 0
97 1 9 0
-1 47 -9 -97 103 0
1 -9 47 -97 103 0
-1 2 9 -47 0
-1 9 97 0
1 -11 47 -128 136 0
47 -11 -1 -128 136 0
-1 11 128 0
-1 2 11 -47 0
1 -2 -11 -128 136 0
-2 -11 -1 -128 136 0
128 1 11 0
1 -47 11 2 0
-155 230 0
-154 78 0
-154 -37 0
14 188 0
59 5 0
75 7 0
